p cnf 348 1008
c inputs: 1 2 3 4 5 6 7 8 9 10 11 12
c variables for gates: 13 ... 336
c outputs: 337 338 339 340 341 342 343 344 345 346 347 348
c random input: 1 2 3 4 5 6 7 -8 -9 -10 -11 -12
13 -1 -7 0
-13 1 0
-13 7 0
14 -2 -7 0
-14 2 0
-14 7 0
15 -3 -7 0
-15 3 0
-15 7 0
16 -4 -7 0
-16 4 0
-16 7 0
17 -5 -7 0
-17 5 0
-17 7 0
18 -6 -7 0
-18 6 0
-18 7 0
19 -1 -8 0
-19 1 0
-19 8 0
20 -2 -8 0
-20 2 0
-20 8 0
21 -3 -8 0
-21 3 0
-21 8 0
22 -4 -8 0
-22 4 0
-22 8 0
23 -5 -8 0
-23 5 0
-23 8 0
24 -6 -8 0
-24 6 0
-24 8 0
25 -1 -9 0
-25 1 0
-25 9 0
26 -2 -9 0
-26 2 0
-26 9 0
27 -3 -9 0
-27 3 0
-27 9 0
28 -4 -9 0
-28 4 0
-28 9 0
29 -5 -9 0
-29 5 0
-29 9 0
30 -6 -9 0
-30 6 0
-30 9 0
31 -1 -10 0
-31 1 0
-31 10 0
32 -2 -10 0
-32 2 0
-32 10 0
33 -3 -10 0
-33 3 0
-33 10 0
34 -4 -10 0
-34 4 0
-34 10 0
35 -5 -10 0
-35 5 0
-35 10 0
36 -6 -10 0
-36 6 0
-36 10 0
37 -1 -11 0
-37 1 0
-37 11 0
38 -2 -11 0
-38 2 0
-38 11 0
39 -3 -11 0
-39 3 0
-39 11 0
40 -4 -11 0
-40 4 0
-40 11 0
41 -5 -11 0
-41 5 0
-41 11 0
42 -6 -11 0
-42 6 0
-42 11 0
43 -1 -12 0
-43 1 0
-43 12 0
44 -2 -12 0
-44 2 0
-44 12 0
45 -3 -12 0
-45 3 0
-45 12 0
46 -4 -12 0
-46 4 0
-46 12 0
47 -5 -12 0
-47 5 0
-47 12 0
48 -6 -12 0
-48 6 0
-48 12 0
49 -32 -37 0
-49 32 0
-49 37 0
50 -37 32 0
-50 37 0
-50 -32 0
51 -32 37 0
-51 32 0
-51 -37 0
52 50 51 0
-52 -50 0
-52 -51 0
53 -43 -49 0
-53 43 0
-53 49 0
54 -38 -49 0
-54 38 0
-54 49 0
55 -38 -43 0
-55 38 0
-55 43 0
56 55 54 0
-56 -55 0
-56 -54 0
57 53 -56 0
-57 -53 0
-57 56 0
58 -43 38 0
-58 43 0
-58 -38 0
59 -38 43 0
-59 38 0
-59 -43 0
60 58 59 0
-60 -58 0
-60 -59 0
61 -49 -60 0
-61 49 0
-61 60 0
62 49 60 0
-62 -49 0
-62 -60 0
63 62 61 0
-63 -62 0
-63 -61 0
64 -33 63 0
-64 33 0
-64 -63 0
65 33 63 0
-65 -33 0
-65 -63 0
66 -33 -63 0
-66 33 0
-66 63 0
67 65 66 0
-67 -65 0
-67 -66 0
68 57 -64 0
-68 -57 0
-68 64 0
69 -44 -64 0
-69 44 0
-69 64 0
70 -44 57 0
-70 44 0
-70 -57 0
71 70 69 0
-71 -70 0
-71 -69 0
72 68 -71 0
-72 -68 0
-72 71 0
73 44 57 0
-73 -44 0
-73 -57 0
74 -44 -57 0
-74 44 0
-74 57 0
75 73 74 0
-75 -73 0
-75 -74 0
76 -64 -75 0
-76 64 0
-76 75 0
77 64 75 0
-77 -64 0
-77 -75 0
78 77 76 0
-78 -77 0
-78 -76 0
79 -39 78 0
-79 39 0
-79 -78 0
80 39 78 0
-80 -39 0
-80 -78 0
81 -39 -78 0
-81 39 0
-81 78 0
82 81 80 0
-82 -81 0
-82 -80 0
83 -79 72 0
-83 79 0
-83 -72 0
84 -45 -79 0
-84 45 0
-84 79 0
85 -45 72 0
-85 45 0
-85 -72 0
86 84 85 0
-86 -84 0
-86 -85 0
87 83 -86 0
-87 -83 0
-87 86 0
88 45 72 0
-88 -45 0
-88 -72 0
89 -45 -72 0
-89 45 0
-89 72 0
90 89 88 0
-90 -89 0
-90 -88 0
91 -79 -90 0
-91 79 0
-91 90 0
92 79 90 0
-92 -79 0
-92 -90 0
93 92 91 0
-93 -92 0
-93 -91 0
94 -26 -31 0
-94 26 0
-94 31 0
95 -31 26 0
-95 31 0
-95 -26 0
96 -26 31 0
-96 26 0
-96 -31 0
97 95 96 0
-97 -95 0
-97 -96 0
98 -94 52 0
-98 94 0
-98 -52 0
99 -27 -94 0
-99 27 0
-99 94 0
100 -27 52 0
-100 27 0
-100 -52 0
101 99 100 0
-101 -99 0
-101 -100 0
102 98 -101 0
-102 -98 0
-102 101 0
103 27 52 0
-103 -27 0
-103 -52 0
104 -27 -52 0
-104 27 0
-104 52 0
105 104 103 0
-105 -104 0
-105 -103 0
106 -94 -105 0
-106 94 0
-106 105 0
107 94 105 0
-107 -94 0
-107 -105 0
108 106 107 0
-108 -106 0
-108 -107 0
109 102 67 0
-109 -102 0
-109 -67 0
110 -28 102 0
-110 28 0
-110 -102 0
111 -28 67 0
-111 28 0
-111 -67 0
112 110 111 0
-112 -110 0
-112 -111 0
113 109 -112 0
-113 -109 0
-113 112 0
114 28 67 0
-114 -28 0
-114 -67 0
115 -28 -67 0
-115 28 0
-115 67 0
116 114 115 0
-116 -114 0
-116 -115 0
117 102 -116 0
-117 -102 0
-117 116 0
118 -102 116 0
-118 102 0
-118 -116 0
119 118 117 0
-119 -118 0
-119 -117 0
120 82 113 0
-120 -82 0
-120 -113 0
121 -34 113 0
-121 34 0
-121 -113 0
122 -34 82 0
-122 34 0
-122 -82 0
123 122 121 0
-123 -122 0
-123 -121 0
124 120 -123 0
-124 -120 0
-124 123 0
125 34 82 0
-125 -34 0
-125 -82 0
126 -34 -82 0
-126 34 0
-126 82 0
127 126 125 0
-127 -126 0
-127 -125 0
128 113 -127 0
-128 -113 0
-128 127 0
129 -113 127 0
-129 113 0
-129 -127 0
130 129 128 0
-130 -129 0
-130 -128 0
131 124 93 0
-131 -124 0
-131 -93 0
132 -40 124 0
-132 40 0
-132 -124 0
133 -40 93 0
-133 40 0
-133 -93 0
134 132 133 0
-134 -132 0
-134 -133 0
135 -134 131 0
-135 134 0
-135 -131 0
136 40 93 0
-136 -40 0
-136 -93 0
137 -40 -93 0
-137 40 0
-137 93 0
138 137 136 0
-138 -137 0
-138 -136 0
139 124 -138 0
-139 -124 0
-139 138 0
140 -124 138 0
-140 124 0
-140 -138 0
141 140 139 0
-141 -140 0
-141 -139 0
142 87 135 0
-142 -87 0
-142 -135 0
143 -46 135 0
-143 46 0
-143 -135 0
144 -46 87 0
-144 46 0
-144 -87 0
145 144 143 0
-145 -144 0
-145 -143 0
146 -145 142 0
-146 145 0
-146 -142 0
147 46 87 0
-147 -46 0
-147 -87 0
148 -46 -87 0
-148 46 0
-148 87 0
149 148 147 0
-149 -148 0
-149 -147 0
150 -149 135 0
-150 149 0
-150 -135 0
151 149 -135 0
-151 -149 0
-151 135 0
152 150 151 0
-152 -150 0
-152 -151 0
153 -20 -25 0
-153 20 0
-153 25 0
154 -25 20 0
-154 25 0
-154 -20 0
155 -20 25 0
-155 20 0
-155 -25 0
156 154 155 0
-156 -154 0
-156 -155 0
157 -153 97 0
-157 153 0
-157 -97 0
158 -21 -153 0
-158 21 0
-158 153 0
159 -21 97 0
-159 21 0
-159 -97 0
160 158 159 0
-160 -158 0
-160 -159 0
161 157 -160 0
-161 -157 0
-161 160 0
162 21 97 0
-162 -21 0
-162 -97 0
163 -21 -97 0
-163 21 0
-163 97 0
164 163 162 0
-164 -163 0
-164 -162 0
165 -153 -164 0
-165 153 0
-165 164 0
166 153 164 0
-166 -153 0
-166 -164 0
167 165 166 0
-167 -165 0
-167 -166 0
168 161 108 0
-168 -161 0
-168 -108 0
169 -22 161 0
-169 22 0
-169 -161 0
170 -22 108 0
-170 22 0
-170 -108 0
171 169 170 0
-171 -169 0
-171 -170 0
172 168 -171 0
-172 -168 0
-172 171 0
173 22 108 0
-173 -22 0
-173 -108 0
174 -22 -108 0
-174 22 0
-174 108 0
175 173 174 0
-175 -173 0
-175 -174 0
176 161 -175 0
-176 -161 0
-176 175 0
177 -161 175 0
-177 161 0
-177 -175 0
178 177 176 0
-178 -177 0
-178 -176 0
179 172 119 0
-179 -172 0
-179 -119 0
180 -23 172 0
-180 23 0
-180 -172 0
181 -23 119 0
-181 23 0
-181 -119 0
182 180 181 0
-182 -180 0
-182 -181 0
183 179 -182 0
-183 -179 0
-183 182 0
184 23 119 0
-184 -23 0
-184 -119 0
185 -23 -119 0
-185 23 0
-185 119 0
186 185 184 0
-186 -185 0
-186 -184 0
187 172 -186 0
-187 -172 0
-187 186 0
188 -172 186 0
-188 172 0
-188 -186 0
189 187 188 0
-189 -187 0
-189 -188 0
190 183 130 0
-190 -183 0
-190 -130 0
191 -29 183 0
-191 29 0
-191 -183 0
192 -29 130 0
-192 29 0
-192 -130 0
193 191 192 0
-193 -191 0
-193 -192 0
194 -193 190 0
-194 193 0
-194 -190 0
195 29 130 0
-195 -29 0
-195 -130 0
196 -29 -130 0
-196 29 0
-196 130 0
197 195 196 0
-197 -195 0
-197 -196 0
198 183 -197 0
-198 -183 0
-198 197 0
199 -183 197 0
-199 183 0
-199 -197 0
200 198 199 0
-200 -198 0
-200 -199 0
201 141 194 0
-201 -141 0
-201 -194 0
202 -35 194 0
-202 35 0
-202 -194 0
203 -35 141 0
-203 35 0
-203 -141 0
204 203 202 0
-204 -203 0
-204 -202 0
205 201 -204 0
-205 -201 0
-205 204 0
206 35 141 0
-206 -35 0
-206 -141 0
207 -35 -141 0
-207 35 0
-207 141 0
208 206 207 0
-208 -206 0
-208 -207 0
209 -208 194 0
-209 208 0
-209 -194 0
210 208 -194 0
-210 -208 0
-210 194 0
211 209 210 0
-211 -209 0
-211 -210 0
212 205 152 0
-212 -205 0
-212 -152 0
213 -41 205 0
-213 41 0
-213 -205 0
214 -41 152 0
-214 41 0
-214 -152 0
215 213 214 0
-215 -213 0
-215 -214 0
216 -215 212 0
-216 215 0
-216 -212 0
217 41 152 0
-217 -41 0
-217 -152 0
218 -41 -152 0
-218 41 0
-218 152 0
219 218 217 0
-219 -218 0
-219 -217 0
220 -219 205 0
-220 219 0
-220 -205 0
221 219 -205 0
-221 -219 0
-221 205 0
222 220 221 0
-222 -220 0
-222 -221 0
223 146 216 0
-223 -146 0
-223 -216 0
224 -47 216 0
-224 47 0
-224 -216 0
225 -47 146 0
-225 47 0
-225 -146 0
226 225 224 0
-226 -225 0
-226 -224 0
227 -226 223 0
-227 226 0
-227 -223 0
228 47 146 0
-228 -47 0
-228 -146 0
229 -47 -146 0
-229 47 0
-229 146 0
230 228 229 0
-230 -228 0
-230 -229 0
231 -230 216 0
-231 230 0
-231 -216 0
232 230 -216 0
-232 -230 0
-232 216 0
233 232 231 0
-233 -232 0
-233 -231 0
234 -14 19 0
-234 14 0
-234 -19 0
235 -19 14 0
-235 19 0
-235 -14 0
236 235 234 0
-236 -235 0
-236 -234 0
237 -14 -19 0
-237 14 0
-237 19 0
238 -15 -156 0
-238 15 0
-238 156 0
239 15 156 0
-239 -15 0
-239 -156 0
240 238 239 0
-240 -238 0
-240 -239 0
241 -237 -240 0
-241 237 0
-241 240 0
242 237 240 0
-242 -237 0
-242 -240 0
243 241 242 0
-243 -241 0
-243 -242 0
244 -15 -237 0
-244 15 0
-244 237 0
245 -237 156 0
-245 237 0
-245 -156 0
246 -15 156 0
-246 15 0
-246 -156 0
247 246 245 0
-247 -246 0
-247 -245 0
248 244 -247 0
-248 -244 0
-248 247 0
249 -16 -167 0
-249 16 0
-249 167 0
250 16 167 0
-250 -16 0
-250 -167 0
251 250 249 0
-251 -250 0
-251 -249 0
252 248 -251 0
-252 -248 0
-252 251 0
253 -248 251 0
-253 248 0
-253 -251 0
254 253 252 0
-254 -253 0
-254 -252 0
255 -16 248 0
-255 16 0
-255 -248 0
256 248 167 0
-256 -248 0
-256 -167 0
257 -16 167 0
-257 16 0
-257 -167 0
258 256 257 0
-258 -256 0
-258 -257 0
259 255 -258 0
-259 -255 0
-259 258 0
260 -17 -178 0
-260 17 0
-260 178 0
261 17 178 0
-261 -17 0
-261 -178 0
262 261 260 0
-262 -261 0
-262 -260 0
263 259 -262 0
-263 -259 0
-263 262 0
264 -259 262 0
-264 259 0
-264 -262 0
265 264 263 0
-265 -264 0
-265 -263 0
266 -17 259 0
-266 17 0
-266 -259 0
267 259 178 0
-267 -259 0
-267 -178 0
268 -17 178 0
-268 17 0
-268 -178 0
269 267 268 0
-269 -267 0
-269 -268 0
270 266 -269 0
-270 -266 0
-270 269 0
271 -18 -189 0
-271 18 0
-271 189 0
272 18 189 0
-272 -18 0
-272 -189 0
273 272 271 0
-273 -272 0
-273 -271 0
274 -273 270 0
-274 273 0
-274 -270 0
275 273 -270 0
-275 -273 0
-275 270 0
276 275 274 0
-276 -275 0
-276 -274 0
277 -18 270 0
-277 18 0
-277 -270 0
278 189 270 0
-278 -189 0
-278 -270 0
279 -18 189 0
-279 18 0
-279 -189 0
280 278 279 0
-280 -278 0
-280 -279 0
281 277 -280 0
-281 -277 0
-281 280 0
282 -24 -200 0
-282 24 0
-282 200 0
283 24 200 0
-283 -24 0
-283 -200 0
284 283 282 0
-284 -283 0
-284 -282 0
285 -284 281 0
-285 284 0
-285 -281 0
286 284 -281 0
-286 -284 0
-286 281 0
287 285 286 0
-287 -285 0
-287 -286 0
288 -24 281 0
-288 24 0
-288 -281 0
289 200 281 0
-289 -200 0
-289 -281 0
290 -24 200 0
-290 24 0
-290 -200 0
291 290 289 0
-291 -290 0
-291 -289 0
292 -291 288 0
-292 291 0
-292 -288 0
293 -30 -211 0
-293 30 0
-293 211 0
294 30 211 0
-294 -30 0
-294 -211 0
295 293 294 0
-295 -293 0
-295 -294 0
296 292 -295 0
-296 -292 0
-296 295 0
297 -292 295 0
-297 292 0
-297 -295 0
298 297 296 0
-298 -297 0
-298 -296 0
299 -30 292 0
-299 30 0
-299 -292 0
300 292 211 0
-300 -292 0
-300 -211 0
301 -30 211 0
-301 30 0
-301 -211 0
302 300 301 0
-302 -300 0
-302 -301 0
303 299 -302 0
-303 -299 0
-303 302 0
304 -36 -222 0
-304 36 0
-304 222 0
305 36 222 0
-305 -36 0
-305 -222 0
306 304 305 0
-306 -304 0
-306 -305 0
307 -306 303 0
-307 306 0
-307 -303 0
308 306 -303 0
-308 -306 0
-308 303 0
309 308 307 0
-309 -308 0
-309 -307 0
310 -36 303 0
-310 36 0
-310 -303 0
311 222 303 0
-311 -222 0
-311 -303 0
312 -36 222 0
-312 36 0
-312 -222 0
313 312 311 0
-313 -312 0
-313 -311 0
314 -313 310 0
-314 313 0
-314 -310 0
315 -42 -233 0
-315 42 0
-315 233 0
316 42 233 0
-316 -42 0
-316 -233 0
317 315 316 0
-317 -315 0
-317 -316 0
318 314 -317 0
-318 -314 0
-318 317 0
319 -314 317 0
-319 314 0
-319 -317 0
320 319 318 0
-320 -319 0
-320 -318 0
321 -42 314 0
-321 42 0
-321 -314 0
322 314 233 0
-322 -314 0
-322 -233 0
323 -42 233 0
-323 42 0
-323 -233 0
324 322 323 0
-324 -322 0
-324 -323 0
325 321 -324 0
-325 -321 0
-325 324 0
326 -48 -227 0
-326 48 0
-326 227 0
327 48 227 0
-327 -48 0
-327 -227 0
328 326 327 0
-328 -326 0
-328 -327 0
329 -328 325 0
-329 328 0
-329 -325 0
330 328 -325 0
-330 -328 0
-330 325 0
331 330 329 0
-331 -330 0
-331 -329 0
332 -48 325 0
-332 48 0
-332 -325 0
333 227 325 0
-333 -227 0
-333 -325 0
334 -48 227 0
-334 48 0
-334 -227 0
335 334 333 0
-335 -334 0
-335 -333 0
336 -335 332 0
-336 335 0
-336 -332 0
-337 13 0
337 -13 0
-338 -236 0
338 236 0
-339 -243 0
339 243 0
-340 -254 0
340 254 0
-341 -265 0
341 265 0
-342 -276 0
342 276 0
-343 -287 0
343 287 0
-344 -298 0
344 298 0
-345 -309 0
345 309 0
-346 -320 0
346 320 0
-347 -331 0
347 331 0
-348 -336 0
348 336 0
337 0
338 0
339 0
340 0
341 0
342 0
-343 0
-344 0
-345 0
-346 0
-347 0
-348 0
